(set-info :source |printed by MathSAT|)
(declare-fun flby2.next () Bool)
(declare-fun _OK_.next () Bool)
(declare-fun b () Bool)
(declare-fun c.next () Bool)
(declare-fun flby.next () Bool)
(declare-fun a () Bool)
(declare-fun flby3 () Bool)
(declare-fun flby () Bool)
(declare-fun flby2 () Bool)
(declare-fun flby3.next () Bool)
(declare-fun c () Bool)
(declare-fun b.next () Bool)
(declare-fun _OK_ () Bool)
(declare-fun a.next () Bool)
(define-fun .def_149 () Bool (= flby3.next c.next))
(define-fun .def_147 () Bool (= flby2.next b.next))
(define-fun .def_145 () Bool (= flby.next a.next))
(define-fun .def_135 () Bool (not a.next))
(define-fun .def_131 () Bool (not b.next))
(define-fun .def_138 () Bool (and .def_131 .def_135))
(define-fun .def_139 () Bool (and c.next .def_138))
(define-fun .def_136 () Bool (and b.next .def_135))
(define-fun .def_133 () Bool (not c.next))
(define-fun .def_137 () Bool (and .def_133 .def_136))
(define-fun .def_140 () Bool (or .def_137 .def_139))
(define-fun .def_132 () Bool (and a.next .def_131))
(define-fun .def_134 () Bool (and .def_132 .def_133))
(define-fun .def_141 () Bool (or .def_134 .def_140))
(define-fun .def_127 () Bool (and a.next b.next))
(define-fun .def_129 () Bool (and .def_127 c.next))
(define-fun .def_142 () Bool (or .def_129 .def_141))
(define-fun .def_130 () Bool (not .def_129))
(define-fun .def_143 () Bool (and .def_130 .def_142))
(define-fun .def_144 () Bool (= _OK_.next .def_143))
(define-fun .def_146 () Bool (and .def_144 .def_145))
(define-fun .def_148 () Bool (and .def_146 .def_147))
(define-fun .def_150 () Bool (and .def_148 .def_149))
(define-fun .def_109 () Bool (= c flby3))
(define-fun .def_106 () Bool (= b flby2))
(define-fun .def_103 () Bool (= a flby))
(define-fun .def_92 () Bool (not a))
(define-fun .def_88 () Bool (not b))
(define-fun .def_95 () Bool (and .def_88 .def_92))
(define-fun .def_96 () Bool (and c .def_95))
(define-fun .def_93 () Bool (and b .def_92))
(define-fun .def_90 () Bool (not c))
(define-fun .def_94 () Bool (and .def_90 .def_93))
(define-fun .def_97 () Bool (or .def_94 .def_96))
(define-fun .def_89 () Bool (and a .def_88))
(define-fun .def_91 () Bool (and .def_89 .def_90))
(define-fun .def_98 () Bool (or .def_91 .def_97))
(define-fun .def_84 () Bool (and a b))
(define-fun .def_86 () Bool (and .def_84 c))
(define-fun .def_99 () Bool (or .def_86 .def_98))
(define-fun .def_87 () Bool (not .def_86))
(define-fun .def_100 () Bool (and .def_87 .def_99))
(define-fun .def_101 () Bool (= _OK_ .def_100))
(define-fun .def_104 () Bool (and .def_101 .def_103))
(define-fun .def_107 () Bool (and .def_104 .def_106))
(define-fun .def_110 () Bool (and .def_107 .def_109))
(define-fun .def_151 () Bool (and .def_110 .def_150))
(define-fun .def_122 () Bool (= b flby3.next))
(define-fun .def_119 () Bool (= a flby2.next))
(define-fun .def_117 () Bool (= c flby.next))
(define-fun .def_120 () Bool (and .def_117 .def_119))
(define-fun .def_123 () Bool (and .def_120 .def_122))
(define-fun .def_152 () Bool (and .def_123 .def_151))
(assert .def_152)
